0 7602608
1 7592672
2 7576252
5 7528044
6 7497776
7 7460039
9 7457783
12 7456293
16 7413614
29 7409857
35 7409500
38 7409454
39 7369206
44 7355722
56 7354266
59 7347390
62 7337562
74 7337541
81 7319978
86 7315877
98 7264636
100 7262062
102 7234228
106 7227039
130 7221305
134 7221165
137 7219152
151 7214064
164 7193199
219 7189730
220 7189317
232 7188979
246 7169867
280 7169749
297 7165888
309 7157450
448 7156684
474 7156425
479 7154569
480 7152542
508 7151678
511 7151418
521 7151326
532 7147596
549 7147491
614 7147413
637 7146814
680 7146758
688 7146749
704 7146308
715 7146213
868 7145357
877 7145149
901 7145135
1051 7144855
1116 7142307
1142 7142232
1284 7142128
